c 
c U(n,d) graph
c graph gen seed     : 12644
c number of vertices : 25
c max number of edges: 500
c Euclidean distance : 0.400000
c data structure     : sparse
c
c           Graph Stats
c number of vertices  : 25
c nonisolated vertices: 25
c number of edges     : 104
c edge density        : 0.346667
c max degree          : 12
c avg degree          : 8.32
c min degree          : 5
p col 25 104
e 1 25
e 1 23
e 1 22
e 1 17
e 1 16
e 1 15
e 1 9
e 1 7
e 1 4
e 1 2
e 2 25
e 2 23
e 2 22
e 2 17
e 2 16
e 2 15
e 2 14
e 2 13
e 2 9
e 2 4
e 2 3
e 3 25
e 3 23
e 3 14
e 3 13
e 3 4
e 4 25
e 4 23
e 4 22
e 4 17
e 4 14
e 4 13
e 5 24
e 5 19
e 5 18
e 5 12
e 5 11
e 5 10
e 5 8
e 5 6
e 6 24
e 6 19
e 6 18
e 6 12
e 6 11
e 6 10
e 6 8
e 7 22
e 7 21
e 7 17
e 7 16
e 7 15
e 7 9
e 8 25
e 8 24
e 8 20
e 8 19
e 8 18
e 8 12
e 8 11
e 8 10
e 9 22
e 9 17
e 9 16
e 10 24
e 10 20
e 10 19
e 10 18
e 10 12
e 10 11
e 11 24
e 11 20
e 11 19
e 11 18
e 11 12
e 12 24
e 13 25
e 13 23
e 13 20
e 13 14
e 14 25
e 14 23
e 15 25
e 15 23
e 15 22
e 15 21
e 15 17
e 15 16
e 16 25
e 16 23
e 16 22
e 16 21
e 16 17
e 17 25
e 17 23
e 17 22
e 17 21
e 18 20
e 18 19
e 19 20
e 21 22
e 22 25
e 22 23
e 23 25
